&CONTROL
  calculation   = 'scf',
  prefix        = 'X2YZ',               !**Please use name of your choice**!
  restart_mode  = 'from_scratch',
  verbosity     = 'high',
  nstep         = 120, 
  outdir        = './outdir',
  forc_conv_thr = 1.00000e-05,
  etot_conv_thr = 1.00000e-05, 
/
&SYSTEM
  ibrav       = 2,                           !**FCC crystal**!
  celldm(1)   = 10.56,                       
  nat         = 4,                           !**NUMBER OF ATOMS**!
  ntyp        = 3,                           !**NUMBER OF TYPES OF ATOMS**!
  ecutwfc     = 80,                          !**First test convergence**!
  ecutrho     = 800,                         !**Default = ecutrho ~ 4*ecutwfc**!
  occupations = 'smearing',
  smearing    = 'gaussian',
  degauss     = 0.002,
  nspin       = 2,
  starting_magnetization(1)= 0.01,           !**check for magnetization of each atom**!
  starting_magnetization(2)= 0.01,           !**check for magnetization of each atom**!
  starting_magnetization(3)= 0.01,           !**check for magnetization of each atom**!
/
&ELECTRONS
  electron_maxstep  = 200,
  mixing_mode       = 'plain',               !**charge density Broyden mixing**!
  conv_thr          = 1.00000e-07,
  mixing_beta       = 7.00000e-01,
  diagonalization   = 'cg',
/
&IONS
  ion_dynamics = 'bfgs'                      !**use BFGS quasi-newton algorithm**!
/
&CELL
  cell_dynamics='bfgs'
/
ATOMIC_SPECIES
Cr   51.9961 Cr.pbe-spn-kjpaw_psl.1.0.0.UPF    !**Symbol, atomic weight, and potential for X-element**!
Fe   55.845  Fe.pbe-spn-kjpaw_psl.1.0.0.UPF    !**Symbol, atomic weight, and potential for Y-element**!
Si   28.085  Si.pbe-n-kjpaw_psl.1.0.0.UPF      !**Symbol, atomic weight, and potential for Z-element**!

ATOMIC_POSITIONS {alat}
Cr     0.000000000         0.000000000         0.000000000      !X_1  A and please use symbol for X-element!
Cr     0.250000000         0.250000000         0.250000000      !X_2  B and please use symbol for X-element!
Fe     0.500000000         0.500000000         0.500000000      !Y_1  C and please use symbol for Y-element!
Si     0.750000000         0.750000000         0.750000000      !Z_1  D and please use symbol for Z-element!

K_POINTS {automatic}
10 10 10  0 0 0