&bands
    prefix        = 'CTS',
    outdir        = './outdir',
    filband        = 'FH.bands_up.dat',
    spin_component = 1,
    lsym = .true./
/
/
