&PROJWFC
    prefix        = 'CTS',
    outdir        = './outdir',
    degauss       =  0.001,
    deltae        =  0.001,
    emax          =  20,
    emin          = -15,
    filpdos        = 'FH.pdos.dat',
/
